experiments/sat_smt/run/sat-r/results/tanya.res
solved=true
solvingTime=1.206737041473388671875
nActions=5