experiments/sat_smt/run/sat-r/results/tanya.out
Timesteps: 1
s UNSATISFIABLE
real 0.09
user 0.01
sys 0.00
Timesteps: 2
s UNSATISFIABLE
real 0.16
user 0.02
sys 0.00
Timesteps: 3
s UNSATISFIABLE
real 0.19
user 0.06
sys 0.00
Timesteps: 4
s UNSATISFIABLE
real 0.34
user 0.22
sys 0.00
Timesteps: 5
s SATISFIABLE
real 0.26
user 0.19
sys 0.00
